22508
1 0 1 0 1 1 1 1 1 0 1 1 0 1 0 1 1 1 1 1 1 0 0 0 1 1 0 1 1 0 
18 19 2 27 2 6 15 27 18 28 4 28 13 13 28 18 13 20 27 0 18 16 5 24 10 18 27 19 4 2 19 19 4 16 27 6 20 8 24 16 18 8 6 4 8 19 13 2 19 20 24 16 24 16 8 6 11 8 18 7 4 0 7 8 13 11 5 17 28 25 18 6 19 8 5 13 20 5 8 16 10 0 8 25 4 13 6 5 27 7 28 6 25 25 2 13 11 6 0 28 28 15 25 18 4 0 4 24 27 13 19 4 27 6 11 8 28 7 17 8 20 11 17 19 4 16 2 11 19 17 28 24 25 20 5 8 13 13 28 10 11 27 11 11 25 5 24 15 27 25 24 17 10 0 8 11 2 15 13 13 13 27 10 24 5 27 5 4 8 15 5 20 19 10 4 2 0 10 4 10 5 15 2 19 11 20 28 10 0 2 2 2 6 6 7 6 7 15 10 19 
